Analysis: Scenario 1
Length Units,centimeter
0, x, y, z, x-axis value,(1) Velocity Magnitude(cm/s),(2) Vx-Velocity(cm/s),(3) Vy-Velocity(cm/s),(4) Vz-Velocity(cm/s),(5) Static Pressure(dyne/cm2),(6) Temperature(Celsius),(7) Scalar variable(),(8) Density(g/cm3),(9) Viscosity(poise),(10) Shear Stress XY (Tau-XY)(dyne/cm2),(11) Shear Stress YZ (Tau-YZ)(dyne/cm2),(12) Shear Stress ZX (Tau-ZX)(dyne/cm2),(13) Shear Stress (Tau) Magnitude(dyne/cm2),(14) Wall Film Coefficients(W/cm2/K),(15) Wall Heat Flux(W/cm2),(16) Absolute Pressure(dyne/cm2),(17) Total Pressure(dyne/cm2),(18) Total Temperature(Celsius),(19) Mach Number()
1, -25.4349, -13.4732, -1.64951, 0, 3872.86, -275.332, -21.6743, -3862.28, 2750.02, 0, 0, 0.00120473, 0.0001817, -0.0099281, 0.00261067, 0.0559228, 0.0576347, 0, 0, 1.016e+06, 1.02504e+06, 0.746502, 0.116893
2, -25.4349, -13.4604, -1.84654, 0.197448, 3877.24, -293.569, -15.5877, -3865.82, 2739.32, 0, 0, 0.00120473, 0.0001817, -0.0070403, 0.000666136, 0.0522137, 0.0555512, 0, 0, 1.01599e+06, 1.02504e+06, 0.748173, 0.117025
3, -25.4349, -13.4475, -2.04357, 0.394896, 3889.26, -321.277, -15.9426, -3875.51, 2738.72, 0, 0, 0.00120473, 0.0001817, -0.00713417, 0.00110039, 0.0457324, 0.0491137, 0, 0, 1.01599e+06, 1.0251e+06, 0.752819, 0.117388
4, -25.4349, -13.4347, -2.2406, 0.592344, 3901.28, -349, -16.3054, -3885.2, 2738.15, 0, 0, 0.00120473, 0.0001817, -0.0072316, 0.00153801, 0.0392479, 0.042671, 0, 0, 1.01599e+06, 1.02516e+06, 0.757468, 0.117751
5, -25.4349, -13.4218, -2.43762, 0.789792, 3911.59, -370.901, -12.621, -3893.69, 2727.8, 0, 0, 0.00120473, 0.0001817, -0.00404283, 0.00193333, 0.0353444, 0.0413022, 0, 0, 1.01598e+06, 1.02519e+06, 0.761476, 0.118062
6, -25.4349, -13.409, -2.63465, 0.98724, 3922.9, -387.03, -12.1493, -3903.41, 2684.09, 0, 0, 0.00120473, 0.0001817, -0.00540144, 0.00185362, 0.0306371, 0.0402797, 0, 0, 1.01593e+06, 1.0252e+06, 0.765897, 0.118403
7, -25.4349, -13.3961, -2.83168, 1.18469, 3934.17, -402.505, -13.8277, -3913.09, 2634.34, 0, 0, 0.00120473, 0.0001817, -0.00836292, 0.00204362, 0.025672, 0.0392797, 0, 0, 1.01588e+06, 1.02521e+06, 0.770297, 0.118743
8, -25.4349, -13.3833, -3.02871, 1.38214, 3946.78, -421.131, -15.0299, -3923.8, 2591.56, 0, 0, 0.00120473, 0.0001817, -0.00942868, 0.00174622, 0.0213095, 0.0361634, 0, 0, 1.01584e+06, 1.02522e+06, 0.775237, 0.119124
9, -25.4349, -13.3704, -3.22574, 1.57958, 3963.13, -442.67, -13.64, -3937.99, 2565.18, 0, 0, 0.00120473, 0.0001817, -0.00471475, -0.000229286, 0.0189802, 0.0281749, 0, 0, 1.01582e+06, 1.02528e+06, 0.781679, 0.119617
10, -25.4349, -13.3576, -3.42277, 1.77703, 3977.9, -448.631, -9.98698, -3952.21, 2519.21, 0, 0, 0.00120473, 0.0001817, -0.00161732, -0.00218214, 0.0161236, 0.0250638, 0, 0, 1.01577e+06, 1.0253e+06, 0.787505, 0.120063
11, -25.4349, -13.3447, -3.6198, 1.97448, 3989.78, -448.852, -6.18036, -3964.29, 2435.43, 0, 0, 0.00120473, 0.0001817, 0.000418696, -0.00189843, 0.0152482, 0.0273373, 0, 0, 1.01569e+06, 1.02527e+06, 0.792214, 0.120422
12, -25.4349, -13.3319, -3.81683, 2.17193, 4003.96, -466.836, 1.38826, -3976.38, 2359.59, 0, 0, 0.00120473, 0.0001817, 0.00431991, -0.00225957, 0.0132281, 0.0276088, 0, 0, 1.01561e+06, 1.02527e+06, 0.79786, 0.12085
13, -25.4349, -13.319, -4.01386, 2.36937, 4016.44, -483.682, 8.39796, -3986.91, 2285.18, 0, 0, 0.00120473, 0.0001817, 0.00632395, -0.0030402, 0.0120406, 0.028891, 0, 0, 1.01554e+06, 1.02525e+06, 0.80284, 0.121227
14, -25.4349, -13.3062, -4.21089, 2.56682, 4026.03, -488.646, 15.6926, -3995.95, 2206.41, 0, 0, 0.00120473, 0.0001817, 0.00460725, -0.00217463, 0.0170545, 0.029379, 0, 0, 1.01546e+06, 1.02522e+06, 0.806677, 0.121516
15, -25.4349, -13.2933, -4.40792, 2.76427, 4032.62, -507.885, 20.4678, -3999.9, 2138.09, 0, 0, 0.00120473, 0.0001817, 0.00180338, -0.00182083, 0.0416789, 0.0460616, 0, 0, 1.01539e+06, 1.02518e+06, 0.80932, 0.121715
16, -25.4349, -13.2805, -4.60495, 2.96172, 4034.92, -502.822, 30.309, -4002.96, 2065.27, 0, 0, 0.00120473, 0.0001817, 0.00975966, -0.00229698, 0.0290349, 0.0359676, 0, 0, 1.01532e+06, 1.02512e+06, 0.810242, 0.121784
17, -25.4349, -13.2676, -4.80198, 3.15917, 4040.47, -495.19, 35.4147, -4009.71, 2014.59, 0, 0, 0.00120473, 0.0001817, 0.00796214, -0.000186581, 0.031039, 0.0347012, 0, 0, 1.01526e+06, 1.0251e+06, 0.812471, 0.121952
18, -25.4349, -13.2548, -4.99901, 3.35661, 4006.99, -490.552, 41.7607, -3976.22, 1938.44, 0, 0, 0.00120473, 0.0001817, 0.0116223, -0.00353095, 0.0806658, 0.0837892, 0, 0, 1.01519e+06, 1.02486e+06, 0.799104, 0.120941
19, -25.4349, -13.2419, -5.19604, 3.55406, 3996.25, -492.439, 46.5351, -3965.3, 1901.51, 0, 0, 0.00120473, 0.0001817, 0.0128481, -0.00202838, 0.0938747, 0.0958118, 0, 0, 1.01515e+06, 1.02477e+06, 0.794802, 0.120617
20, -25.4349, -13.2291, -5.39306, 3.75151, 3974.03, -493.628, 50.4086, -3942.85, 1880.14, 0, 0, 0.00120473, 0.0001817, 0.0132846, -0.00166327, 0.109304, 0.110513, 0, 0, 1.01513e+06, 1.02465e+06, 0.786263, 0.119946
21, -25.4349, -13.2162, -5.59009, 3.94896, 3895.1, -483.519, 58.4985, -3863.9, 1880.88, 0, 0, 0.00120473, 0.0001817, 0.0132079, -0.0159559, 0.162777, 0.166253, 0, 0, 1.01513e+06, 1.02429e+06, 0.75637, 0.117564
22, -25.4349, -13.2162, -5.88135, 4.24022, 3895.81, -489.346, 63.1347, -3864.32, 1856.93, 0, 0, 0.00120473, 0.0001817, 0.0127038, -0.013037, 0.137127, 0.138869, 0, 0, 1.01511e+06, 1.02425e+06, 0.755705, 0.117586
23, -25.4349, -13.2162, -6.17262, 4.53148, 3809.37, -477.109, 66.9526, -3778.5, 1811.5, 0, 0, 0.00120473, 0.0001817, 0.0134352, -0.0244829, 0.23432, 0.236554, 0, 0, 1.01506e+06, 1.02382e+06, 0.723823, 0.114977
24, -25.4349, -13.2162, -6.46388, 4.82274, 3743.15, -460.826, 67.5698, -3714.03, 1729.52, 0, 0, 0.00120473, 0.0001817, 0.0137833, -0.026613, 0.249778, 0.251889, 0, 0, 1.01498e+06, 1.02343e+06, 0.697777, 0.112978
25, -25.4349, -13.2162, -6.75514, 5.114, 3682.64, -451.316, 67.1603, -3654.04, 1640.37, 0, 0, 0.00120473, 0.0001817, 0.0125964, -0.0295885, 0.322313, 0.325144, 0, 0, 1.01489e+06, 1.02308e+06, 0.676306, 0.111152
26, -25.4349, -13.2162, -7.0464, 5.40526, 3606.2, -438.19, 72.5628, -3578.47, 1623.22, 0, 0, 0.00120473, 0.0001817, 0.0130221, -0.0456972, 0.332164, 0.336409, 0, 0, 1.01487e+06, 1.02271e+06, 0.647761, 0.108845
27, -25.4349, -13.2162, -7.33766, 5.69652, 3519.16, -425.635, 72.4995, -3492.49, 1631.23, 0, 0, 0.00120473, 0.0001817, 0.0111892, -0.0500456, 0.418845, 0.422282, 0, 0, 1.01488e+06, 1.02235e+06, 0.617225, 0.106217
28, -25.4349, -13.2162, -7.62892, 5.98778, 3422.57, -403.182, 68.8186, -3397.91, 1556.86, 0, 0, 0.00120473, 0.0001817, 0.00855182, -0.0624011, 0.478453, 0.48375, 0, 0, 1.01481e+06, 1.02186e+06, 0.583111, 0.103302
29, -25.4349, -13.2162, -7.92018, 6.27904, 0, 0, 0, 0, 1350.77, 0, 0, 0.00120473, 0.0001817, -2.79101, -8.62598, 84.516, 85.3711, 0.00458224, 0, 1.0146e+06, 1.0146e+06, 0, 0
30, -25.4349, -13.2162, -8.21144, 6.5703, 0, 0, 0, 0, 831.315, 0, 0, 0.00120473, 0.0001817, -1.48643, -4.37135, 54.2695, 54.6503, 0.00288553, 0, 1.01408e+06, 1.01408e+06, 0, 0
31, -25.4349, -13.2162, -8.5027, 6.86157, 0, 0, 0, 0, 598.049, 0, 0, 0.00120473, 0.0001817, -0.455734, -0.52677, 35.6304, 35.6405, 0.00190474, 0, 1.01385e+06, 1.01385e+06, 0, 0
32, -25.4349, -13.2162, -8.79396, 7.15283, 0, 0, 0, 0, 127.176, 0, 0, 0.00120473, 0.0001817, -0.283853, -0.836953, 7.54414, 7.59573, 0.000412337, 0, 1.01338e+06, 1.01338e+06, 0, 0
33, -25.4349, -13.2162, -9.08522, 7.44409, 0, 0, 0, 0, 0, 0, 0, 0.00120473, 0.0001817, 0, 0, 0, 0, 0, 0, 1.01325e+06, 1.01325e+06, 0, 0
34, -25.4349, -13.2162, -9.37648, 7.73535, 0, 0, 0, 0, 0, 0, 0, 0.00120473, 0.0001817, 0, 0, 0, 0, 0, 0, 1.01325e+06, 1.01325e+06, 0, 0
35, -25.4349, -13.2162, -9.66774, 8.02661, 0, 0, 0, 0, 0, 0, 0, 0.00120473, 0.0001817, 0, 0, 0, 0, 0, 0, 1.01325e+06, 1.01325e+06, 0, 0
36, -25.4349, -13.2162, -9.95901, 8.31787, 0, 0, 0, 0, 0, 0, 0, 0.00120473, 0.0001817, 0, 0, 0, 0, 0, 0, 1.01325e+06, 1.01325e+06, 0, 0
37, -25.4349, -13.2162, -10.2503, 8.60913, 0, 0, 0, 0, 0, 0, 0, 0.00120473, 0.0001817, 0, 0, 0, 0, 0, 0, 1.01325e+06, 1.01325e+06, 0, 0
38, -25.4349, -13.2162, -10.5415, 8.90039, 0, 0, 0, 0, 0, 0, 0, 0.00120473, 0.0001817, 0, 0, 0, 0, 0, 0, 1.01325e+06, 1.01325e+06, 0, 0
39, -25.4349, -13.2162, -10.8328, 9.19165, 0, 0, 0, 0, 0, 0, 0, 0.00120473, 0.0001817, 0, 0, 0, 0, 0, 0, 1.01325e+06, 1.01325e+06, 0, 0
40, -25.4349, -13.2162, -11.124, 9.48291, 0, 0, 0, 0, 0, 0, 0, 0.00120473, 0.0001817, 0, 0, 0, 0, 0, 0, 1.01325e+06, 1.01325e+06, 0, 0
41, -25.4349, -13.2162, -11.4153, 9.77417, 0, 0, 0, 0, 0, 0, 0, 0.00120473, 0.0001817, 0, 0, 0, 0, 0, 0, 1.01325e+06, 1.01325e+06, 0, 0
42, -25.4349, -13.2291, -11.638, 9.99727, 0, 0, 0, 0, 0, 0, 0, 0.00120473, 0.0001817, 0, 0, 0, 0, 0, 0, 1.01325e+06, 1.01325e+06, 0, 0
43, -25.4349, -13.2419, -11.8608, 10.2204, 0, 0, 0, 0, 0, 0, 0, 0.00120473, 0.0001817, 0, 0, 0, 0, 0, 0, 1.01325e+06, 1.01325e+06, 0, 0
44, -25.4349, -13.2548, -12.0835, 10.4435, 0, 0, 0, 0, 0, 0, 0, 0.00120473, 0.0001817, 0, 0, 0, 0, 0, 0, 1.01325e+06, 1.01325e+06, 0, 0
45, -25.4349, -13.2676, -12.3062, 10.6666, 0, 0, 0, 0, 0, 0, 0, 0.00120473, 0.0001817, 0, 0, 0, 0, 0, 0, 1.01325e+06, 1.01325e+06, 0, 0
46, -25.4349, -13.2805, -12.529, 10.8897, 0, 0, 0, 0, 0, 0, 0, 0.00120473, 0.0001817, 0, 0, 0, 0, 0, 0, 1.01325e+06, 1.01325e+06, 0, 0
47, -25.4349, -13.2933, -12.7517, 11.1128, 0, 0, 0, 0, 0, 0, 0, 0.00120473, 0.0001817, 0, 0, 0, 0, 0, 0, 1.01325e+06, 1.01325e+06, 0, 0
48, -25.4349, -13.3062, -12.9744, 11.3359, 0, 0, 0, 0, 0, 0, 0, 0.00120473, 0.0001817, 0, 0, 0, 0, 0, 0, 1.01325e+06, 1.01325e+06, 0, 0
49, -25.4349, -13.319, -13.1971, 11.559, 0, 0, 0, 0, 0, 0, 0, 0.00120473, 0.0001817, 0, 0, 0, 0, 0, 0, 1.01325e+06, 1.01325e+06, 0, 0
50, -25.4349, -13.3319, -13.4199, 11.7821, 0, 0, 0, 0, 0, 0, 0, 0.00120473, 0.0001817, 0, 0, 0, 0, 0, 0, 1.01325e+06, 1.01325e+06, 0, 0
51, -25.4349, -13.3447, -13.6426, 12.0052, 0, 0, 0, 0, 0, 0, 0, 0.00120473, 0.0001817, 0, 0, 0, 0, 0, 0, 1.01325e+06, 1.01325e+06, 0, 0
52, -25.4349, -13.3576, -13.8653, 12.2283, 0, 0, 0, 0, 0, 0, 0, 0.00120473, 0.0001817, 0, 0, 0, 0, 0, 0, 1.01325e+06, 1.01325e+06, 0, 0
53, -25.4349, -13.3704, -14.0881, 12.4514, 0, 0, 0, 0, 0, 0, 0, 0.00120473, 0.0001817, 0, 0, 0, 0, 0, 0, 1.01325e+06, 1.01325e+06, 0, 0
54, -25.4349, -13.3833, -14.3108, 12.6745, 0, 0, 0, 0, 0, 0, 0, 0.00120473, 0.0001817, 0, 0, 0, 0, 0, 0, 1.01325e+06, 1.01325e+06, 0, 0
55, -25.4349, -13.3961, -14.5335, 12.8976, 0, 0, 0, 0, 0, 0, 0, 0.00120473, 0.0001817, 0, 0, 0, 0, 0, 0, 1.01325e+06, 1.01325e+06, 0, 0
56, -25.4349, -13.409, -14.7562, 13.1207, 0, 0, 0, 0, 0, 0, 0, 0.00120473, 0.0001817, 0, 0, 0, 0, 0, 0, 1.01325e+06, 1.01325e+06, 0, 0
57, -25.4349, -13.4218, -14.979, 13.3438, 0, 0, 0, 0, 0, 0, 0, 0.00120473, 0.0001817, 0, 0, 0, 0, 0, 0, 1.01325e+06, 1.01325e+06, 0, 0
58, -25.4349, -13.4347, -15.2017, 13.5669, 0, 0, 0, 0, 0, 0, 0, 0.00120473, 0.0001817, 0, 0, 0, 0, 0, 0, 1.01325e+06, 1.01325e+06, 0, 0
59, -25.4349, -13.4475, -15.4244, 13.79, 0, 0, 0, 0, 0, 0, 0, 0.00120473, 0.0001817, 0, 0, 0, 0, 0, 0, 1.01325e+06, 1.01325e+06, 0, 0
60, -25.4349, -13.4604, -15.6472, 14.0131, 0, 0, 0, 0, 0, 0, 0, 0.00120473, 0.0001817, 0, 0, 0, 0, 0, 0, 1.01325e+06, 1.01325e+06, 0, 0
61, -25.4349, -13.4732, -15.8699, 14.2362, 0, 0, 0, 0, 0, 0, 0, 0.00120473, 0.0001817, 0, 0, 0, 0, 0, 0, 1.01325e+06, 1.01325e+06, 0, 0
62, -25.4349, -13.4647, -16.1397, 14.5061, 0, 0, 0, 0, 0, 0, 0, 0.00120473, 0.0001817, 0, 0, 0, 0, 0, 0, 1.01325e+06, 1.01325e+06, 0, 0
63, -25.4349, -13.4561, -16.4096, 14.7761, 0, 0, 0, 0, 0, 0, 0, 0.00120473, 0.0001817, 0, 0, 0, 0, 0, 0, 1.01325e+06, 1.01325e+06, 0, 0
64, -25.4349, -13.4475, -16.6794, 15.0461, 0, 0, 0, 0, 0, 0, 0, 0.00120473, 0.0001817, 0, 0, 0, 0, 0, 0, 1.01325e+06, 1.01325e+06, 0, 0
65, -25.4349, -13.439, -16.9493, 15.3161, 0, 0, 0, 0, 0, 0, 0, 0.00120473, 0.0001817, 0, 0, 0, 0, 0, 0, 1.01325e+06, 1.01325e+06, 0, 0
66, -25.4349, -13.4304, -17.2191, 15.5861, 0, 0, 0, 0, 0, 0, 0, 0.00120473, 0.0001817, 0, 0, 0, 0, 0, 0, 1.01325e+06, 1.01325e+06, 0, 0
67, -25.4349, -13.4218, -17.489, 15.856, 0, 0, 0, 0, 0, 0, 0, 0.00120473, 0.0001817, 0, 0, 0, 0, 0, 0, 1.01325e+06, 1.01325e+06, 0, 0
68, -25.4349, -13.4133, -17.7588, 16.126, 0, 0, 0, 0, 0, 0, 0, 0.00120473, 0.0001817, 0, 0, 0, 0, 0, 0, 1.01325e+06, 1.01325e+06, 0, 0
69, -25.4349, -13.4047, -18.0286, 16.396, 0, 0, 0, 0, 0, 0, 0, 0.00120473, 0.0001817, 0, 0, 0, 0, 0, 0, 1.01325e+06, 1.01325e+06, 0, 0
70, -25.4349, -13.3961, -18.2985, 16.666, 0, 0, 0, 0, 0, 0, 0, 0.00120473, 0.0001817, 0, 0, 0, 0, 0, 0, 1.01325e+06, 1.01325e+06, 0, 0
71, -25.4349, -13.3876, -18.5683, 16.936, 0, 0, 0, 0, 0, 0, 0, 0.00120473, 0.0001817, 0, 0, 0, 0, 0, 0, 1.01325e+06, 1.01325e+06, 0, 0
72, -25.4349, -13.379, -18.8382, 17.2059, 0, 0, 0, 0, 0, 0, 0, 0.00120473, 0.0001817, 0, 0, 0, 0, 0, 0, 1.01325e+06, 1.01325e+06, 0, 0
73, -25.4349, -13.3704, -19.108, 17.4759, 0, 0, 0, 0, 0, 0, 0, 0.00120473, 0.0001817, 0, 0, 0, 0, 0, 0, 1.01325e+06, 1.01325e+06, 0, 0
74, -25.4349, -13.3619, -19.3779, 17.7459, 0, 0, 0, 0, 0, 0, 0, 0.00120473, 0.0001817, 0, 0, 0, 0, 0, 0, 1.01325e+06, 1.01325e+06, 0, 0
75, -25.4349, -13.3533, -19.6477, 18.0159, 0, 0, 0, 0, 0, 0, 0, 0.00120473, 0.0001817, 0, 0, 0, 0, 0, 0, 1.01325e+06, 1.01325e+06, 0, 0
76, -25.4349, -13.3447, -19.9176, 18.2859, 0, 0, 0, 0, 0, 0, 0, 0.00120473, 0.0001817, 0, 0, 0, 0, 0, 0, 1.01325e+06, 1.01325e+06, 0, 0
77, -25.4349, -13.3362, -20.1874, 18.5558, 0, 0, 0, 0, 0, 0, 0, 0.00120473, 0.0001817, 0, 0, 0, 0, 0, 0, 1.01325e+06, 1.01325e+06, 0, 0
78, -25.4349, -13.3276, -20.4572, 18.8258, 0, 0, 0, 0, 0, 0, 0, 0.00120473, 0.0001817, 0, 0, 0, 0, 0, 0, 1.01325e+06, 1.01325e+06, 0, 0
79, -25.4349, -13.319, -20.7271, 19.0958, 0, 0, 0, 0, 0, 0, 0, 0.00120473, 0.0001817, 0, 0, 0, 0, 0, 0, 1.01325e+06, 1.01325e+06, 0, 0
80, -25.4349, -13.3105, -20.9969, 19.3658, 0, 0, 0, 0, 0, 0, 0, 0.00120473, 0.0001817, 0, 0, 0, 0, 0, 0, 1.01325e+06, 1.01325e+06, 0, 0
81, -25.4349, -13.3019, -21.2668, 19.6358, 0, 0, 0, 0, 0, 0, 0, 0.00120473, 0.0001817, 0, 0, 0, 0, 0, 0, 1.01325e+06, 1.01325e+06, 0, 0
82, -25.4349, -13.2762, -21.4467, 19.8175, 0, 0, 0, 0, 0, 0, 0, 0.405798, 0.000111606, 0, 0, 0, 0, 0, 0, 622369, 622369, 0, 0
83, -25.4349, -13.2505, -21.6266, 19.9992, 0, 0, 0, 0, 0, 0, 0, 1.05, 0, 0, 0, 0, 0, 0, 0, 0, 0, 0, 0
84, -25.4349, -13.2248, -21.8065, 20.1809, 0, 0, 0, 0, 0, 0, 0, 0.921439, 2.22727e-05, 0, 0, 0, 0, 0, 0, 124204, 124204, 0, 0
85, -25.4349, -13.1991, -21.9864, 20.3627, 0, 0, 0, 0, 0, 0, 0, 0.41635, 0.000109778, 0, 0, 0, 0, 0, 0, 612174, 612174, 0, 0
86, -25.4349, -13.1734, -22.1663, 20.5444, 0, 0, 0, 0, 0, 0, 0, 0.00120473, 0.0001817, 0, 0, 0, 0, 0, 0, 1.01325e+06, 1.01325e+06, 0, 0
87, -25.4349, -13.1477, -22.3462, 20.7261, 0, 0, 0, 0, 0, 0, 0, 0.00120473, 0.0001817, 0, 0, 0, 0, 0, 0, 1.01325e+06, 1.01325e+06, 0, 0
88, -25.4349, -13.122, -22.526, 20.9078, 0, 0, 0, 0, 0, 0, 0, 0.00120473, 0.0001817, 0, 0, 0, 0, 0, 0, 1.01325e+06, 1.01325e+06, 0, 0
89, -25.4349, -13.0963, -22.7059, 21.0895, 0, 0, 0, 0, 0, 0, 0, 0.00120473, 0.0001817, 0, 0, 0, 0, 0, 0, 1.01325e+06, 1.01325e+06, 0, 0
90, -25.4349, -13.0706, -22.8858, 21.2713, 0, 0, 0, 0, 0, 0, 0, 0.00120473, 0.0001817, 0, 0, 0, 0, 0, 0, 1.01325e+06, 1.01325e+06, 0, 0
91, -25.4349, -13.0449, -23.0657, 21.453, 0, 0, 0, 0, 0, 0, 0, 0.00120473, 0.0001817, 0, 0, 0, 0, 0, 0, 1.01325e+06, 1.01325e+06, 0, 0
92, -25.4349, -13.0192, -23.2456, 21.6347, 0, 0, 0, 0, 0, 0, 0, 0.00120473, 0.0001817, 0, 0, 0, 0, 0, 0, 1.01325e+06, 1.01325e+06, 0, 0
93, -25.4349, -12.9935, -23.4255, 21.8164, 0, 0, 0, 0, 0, 0, 0, 0.00120473, 0.0001817, 0, 0, 0, 0, 0, 0, 1.01325e+06, 1.01325e+06, 0, 0
94, -25.4349, -12.9678, -23.6054, 21.9982, 0, 0, 0, 0, 0, 0, 0, 0.00120473, 0.0001817, 0, 0, 0, 0, 0, 0, 1.01325e+06, 1.01325e+06, 0, 0
95, -25.4349, -12.9421, -23.7853, 22.1799, 0, 0, 0, 0, 0, 0, 0, 0.00120473, 0.0001817, 0, 0, 0, 0, 0, 0, 1.01325e+06, 1.01325e+06, 0, 0
96, -25.4349, -12.9164, -23.9652, 22.3616, 0, 0, 0, 0, 0, 0, 0, 0.00120473, 0.0001817, 0, 0, 0, 0, 0, 0, 1.01325e+06, 1.01325e+06, 0, 0
97, -25.4349, -12.8907, -24.1451, 22.5433, 0, 0, 0, 0, 0, 0, 0, 0.00120473, 0.0001817, 0, 0, 0, 0, 0, 0, 1.01325e+06, 1.01325e+06, 0, 0
98, -25.4349, -12.865, -24.325, 22.7251, 0, 0, 0, 0, 0, 0, 0, 0.00120473, 0.0001817, 0, 0, 0, 0, 0, 0, 1.01325e+06, 1.01325e+06, 0, 0
99, -25.4349, -12.8393, -24.5049, 22.9068, 0, 0, 0, 0, 0, 0, 0, 0.00120473, 0.0001817, 0, 0, 0, 0, 0, 0, 1.01325e+06, 1.01325e+06, 0, 0
100, -25.4349, -12.8136, -24.6848, 23.0885, 0, 0, 0, 0, 0, 0, 0, 0.00120473, 0.0001817, 0, 0, 0, 0, 0, 0, 1.01325e+06, 1.01325e+06, 0, 0
101, -25.4349, -12.7879, -24.8647, 23.2702, 0, 0, 0, 0, 0, 0, 0, 0.00120473, 0.0001817, 0, 0, 0, 0, 0, 0, 1.01325e+06, 1.01325e+06, 0, 0
102, -25.4349, -12.7836, -25.0874, 23.493, 0, 0, 0, 0, 0, 0, 0, 0.00120473, 0.0001817, 0, 0, 0, 0, 0, 0, 1.01325e+06, 1.01325e+06, 0, 0
103, -25.4349, -12.7794, -25.3102, 23.7158, 0, 0, 0, 0, 0, 0, 0, 0.00120473, 0.0001817, 0, 0, 0, 0, 0, 0, 1.01325e+06, 1.01325e+06, 0, 0
104, -25.4349, -12.7751, -25.5329, 23.9385, 0, 0, 0, 0, 0, 0, 0, 0.00120473, 0.0001817, 0, 0, 0, 0, 0, 0, 1.01325e+06, 1.01325e+06, 0, 0
105, -25.4349, -12.7708, -25.7556, 24.1613, 0, 0, 0, 0, 0, 0, 0, 0.00120473, 0.0001817, 0, 0, 0, 0, 0, 0, 1.01325e+06, 1.01325e+06, 0, 0
106, -25.4349, -12.7665, -25.9783, 24.3841, 0, 0, 0, 0, 0, 0, 0, 0.00120473, 0.0001817, 0, 0, 0, 0, 0, 0, 1.01325e+06, 1.01325e+06, 0, 0
107, -25.4349, -12.7622, -26.2011, 24.6068, 0, 0, 0, 0, 0, 0, 0, 0.00120473, 0.0001817, 0, 0, 0, 0, 0, 0, 1.01325e+06, 1.01325e+06, 0, 0
108, -25.4349, -12.7579, -26.4238, 24.8296, 0, 0, 0, 0, 0, 0, 0, 0.00120473, 0.0001817, 0, 0, 0, 0, 0, 0, 1.01325e+06, 1.01325e+06, 0, 0
109, -25.4349, -12.7537, -26.6465, 25.0524, 0, 0, 0, 0, 0, 0, 0, 0.00120473, 0.0001817, 0, 0, 0, 0, 0, 0, 1.01325e+06, 1.01325e+06, 0, 0
110, -25.4349, -12.7494, -26.8693, 25.2752, 0, 0, 0, 0, 0, 0, 0, 0.00120473, 0.0001817, 0, 0, 0, 0, 0, 0, 1.01325e+06, 1.01325e+06, 0, 0
111, -25.4349, -12.7451, -27.092, 25.4979, 0, 0, 0, 0, 0, 0, 0, 0.00120473, 0.0001817, 0, 0, 0, 0, 0, 0, 1.01325e+06, 1.01325e+06, 0, 0
112, -25.4349, -12.7408, -27.3147, 25.7207, 0, 0, 0, 0, 0, 0, 0, 0.00120473, 0.0001817, 0, 0, 0, 0, 0, 0, 1.01325e+06, 1.01325e+06, 0, 0
113, -25.4349, -12.7365, -27.5374, 25.9435, 0, 0, 0, 0, 0, 0, 0, 0.00120473, 0.0001817, 0, 0, 0, 0, 0, 0, 1.01325e+06, 1.01325e+06, 0, 0
114, -25.4349, -12.7322, -27.7602, 26.1662, 0, 0, 0, 0, 0, 0, 0, 0.00120473, 0.0001817, 0, 0, 0, 0, 0, 0, 1.01325e+06, 1.01325e+06, 0, 0
115, -25.4349, -12.728, -27.9829, 26.389, 0, 0, 0, 0, 0, 0, 0, 0.00120473, 0.0001817, 0, 0, 0, 0, 0, 0, 1.01325e+06, 1.01325e+06, 0, 0
116, -25.4349, -12.7237, -28.2056, 26.6118, 0, 0, 0, 0, 0, 0, 0, 0.00120473, 0.0001817, 0, 0, 0, 0, 0, 0, 1.01325e+06, 1.01325e+06, 0, 0
117, -25.4349, -12.7194, -28.4284, 26.8345, 0, 0, 0, 0, 0, 0, 0, 0.00120473, 0.0001817, 0, 0, 0, 0, 0, 0, 1.01325e+06, 1.01325e+06, 0, 0
118, -25.4349, -12.7151, -28.6511, 27.0573, 0, 0, 0, 0, 0, 0, 0, 0.00120473, 0.0001817, 0, 0, 0, 0, 0, 0, 1.01325e+06, 1.01325e+06, 0, 0
119, -25.4349, -12.7108, -28.8738, 27.2801, 0, 0, 0, 0, 0, 0, 0, 0.00120473, 0.0001817, 0, 0, 0, 0, 0, 0, 1.01325e+06, 1.01325e+06, 0, 0
120, -25.4349, -12.7065, -29.0965, 27.5029, 0, 0, 0, 0, 0, 0, 0, 0.00120473, 0.0001817, 0, 0, 0, 0, 0, 0, 1.01325e+06, 1.01325e+06, 0, 0
121, -25.4349, -12.7023, -29.3193, 27.7256, 0, 0, 0, 0, 0, 0, 0, 0.00120473, 0.0001817, 0, 0, 0, 0, 0, 0, 1.01325e+06, 1.01325e+06, 0, 0
122, -25.4349, -12.7023, -29.5934, 27.9997, 0, 0, 0, 0, 0, 0, 0, 0.00120473, 0.0001817, 0, 0, 0, 0, 0, 0, 1.01325e+06, 1.01325e+06, 0, 0
123, -25.4349, -12.7023, -29.8675, 28.2739, 0, 0, 0, 0, 0, 0, 0, 0.00120473, 0.0001817, 0, 0, 0, 0, 0, 0, 1.01325e+06, 1.01325e+06, 0, 0
124, -25.4349, -12.7023, -30.1417, 28.548, 0, 0, 0, 0, 0, 0, 0, 0.305276, 0.000129021, 0, 0, 0, 0, 0, 0, 719484, 719484, 0, 0
125, -25.4349, -12.7023, -30.4158, 28.8221, 0, 0, 0, 0, -697.987, 0, 0, 0.64269, 7.05649e-05, 3.80138e-10, -2.18673e-08, -5.95188e-08, 6.86306e-08, 6.4382e-10, 0, 392807, 392807, 0, 0
126, -25.4349, -12.7023, -30.6899, 29.0963, 0.000137771, 2.1766e-05, 2.90463e-05, -0.000116303, -1797.27, 0, 0, 0.00120473, 0.0001817, 3.44897e-08, -6.27264e-08, 1.7989e-08, 7.9171e-08, 0, 0, 1.01145e+06, 1.01145e+06, 0, 4.15829e-09
127, -25.4349, -12.7023, -30.964, 29.3704, 0.000387607, -4.7197e-06, 0.000125797, -0.000357842, -1797.27, 0, 0, 0.00120473, 0.0001817, 5.98383e-08, -3.75006e-08, 5.91476e-09, 7.67755e-08, 0, 0, 1.01145e+06, 1.01145e+06, 0, 1.1699e-08
128, -25.4349, -12.7023, -31.2382, 29.6445, 0.000774918, -9.19905e-05, 0.000193789, -0.000737804, -1797.27, 0, 0, 0.00120473, 0.0001817, 6.02617e-08, -3.48163e-09, -2.58666e-08, 7.16384e-08, 0, 0, 1.01145e+06, 1.01145e+06, 0, 2.3389e-08
129, -25.4349, -12.7023, -31.5123, 29.9186, 0.00114411, -0.000171447, 0.000253771, -0.00109561, -1797.27, 0, 0, 0.00120473, 0.0001817, 6.93147e-08, 2.44e-08, -6.50206e-08, 1.03744e-07, 0, 0, 1.01145e+06, 1.01145e+06, 0, 3.45323e-08
130, -25.4349, -12.7023, -31.7864, 30.1928, 0.00146443, -0.000180454, 0.000242005, -0.00142784, -1797.27, 0, 0, 0.00120473, 0.0001817, 6.54005e-08, 4.72627e-08, -9.92562e-08, 1.31423e-07, 0, 0, 1.01145e+06, 1.01145e+06, 0, 4.42003e-08
131, -25.4349, -12.7023, -32.0606, 30.4669, 0.00177698, -0.000170681, 0.000221064, -0.00175351, -1797.27, 0, 0, 0.00120473, 0.0001817, 5.77565e-08, 7.05624e-08, -1.28068e-07, 1.59081e-07, 0, 0, 1.01145e+06, 1.01145e+06, 0, 5.3634e-08
132, -25.4349, -12.7023, -32.3347, 30.741, 0.00205743, -0.000145572, 0.000205511, -0.00203527, -1797.27, 0, 0, 0.00120473, 0.0001817, 4.73479e-08, 1.01021e-07, -1.64479e-07, 2.06337e-07, 0, 0, 1.01145e+06, 1.01145e+06, 0, 6.20985e-08
133, -25.4349, -12.7023, -32.6088, 31.0152, 0.0022763, -8.98819e-05, 0.000147187, -0.00225977, -1797.27, 0, 0, 0.00120473, 0.0001817, 3.28332e-08, 1.19776e-07, -2.04401e-07, 2.59658e-07, 0, 0, 1.01145e+06, 1.01145e+06, 0, 6.87046e-08
134, -25.4349, -12.7023, -32.8829, 31.2893, 0.0024953, -3.29331e-05, 7.40572e-05, -0.00248827, -1797.27, 0, 0, 0.00120473, 0.0001817, 1.65977e-08, 1.29535e-07, -2.43889e-07, 3.1104e-07, 0, 0, 1.01145e+06, 1.01145e+06, 0, 7.53147e-08
135, -25.4349, -12.7023, -33.1571, 31.5634, 0.00281365, 1.67001e-05, -6.11172e-06, -0.00281124, -1797.27, 0, 0, 0.00120473, 0.0001817, 5.81243e-09, 1.32734e-07, -2.11642e-07, 2.59996e-07, 0, 0, 1.01145e+06, 1.01145e+06, 0, 8.49232e-08
136, -25.4349, -12.7023, -33.4312, 31.8375, 0.00297299, 3.82238e-05, -5.00347e-05, -0.00297205, -1797.27, 0, 0, 0.00120473, 0.0001817, -4.11151e-09, 1.39591e-07, -2.03669e-07, 2.50941e-07, 0, 0, 1.01145e+06, 1.01145e+06, 0, 8.97326e-08
137, -25.4349, -12.7023, -33.7053, 32.1117, 0.00311047, 8.56156e-05, -0.000102435, -0.00310702, -1797.27, 0, 0, 0.00120473, 0.0001817, -1.62448e-08, 1.47104e-07, -2.03993e-07, 2.56699e-07, 0, 0, 1.01145e+06, 1.01145e+06, 0, 9.3882e-08
138, -25.4349, -12.7023, -33.9795, 32.3858, 0.0032264, 0.000123259, -0.000147182, -0.00322063, -1797.27, 0, 0, 0.00120473, 0.0001817, -2.81211e-08, 1.60432e-07, -2.06426e-07, 2.66437e-07, 0, 0, 1.01145e+06, 1.01145e+06, 0, 9.73811e-08
139, -25.4349, -12.7023, -34.2536, 32.6599, 0.00328822, 0.000127839, -0.000170019, -0.00328115, -1797.27, 0, 0, 0.00120473, 0.0001817, -3.33472e-08, 1.67575e-07, -2.08945e-07, 2.74136e-07, 0, 0, 1.01145e+06, 1.01145e+06, 0, 9.9247e-08
140, -25.4349, -12.7023, -34.5277, 32.934, 0.00340105, 0.00013728, -0.000187642, -0.003393, -1797.27, 0, 0, 0.00120473, 0.0001817, -3.85438e-08, 1.71163e-07, -1.95211e-07, 2.642e-07, 0, 0, 1.01145e+06, 1.01145e+06, 0, 1.02652e-07
141, -25.4349, -12.7023, -34.8018, 33.2082, 0.00350004, 0.000153751, -0.000207965, -0.00349036, -1797.27, 0, 0, 0.00120473, 0.0001817, -3.98594e-08, 1.62792e-07, -1.8601e-07, 2.57034e-07, 0, 0, 1.01145e+06, 1.01145e+06, 0, 1.0564e-07
142, -25.4349, -12.7023, -34.9989, 33.4052, 0.00355344, 0.000165917, -0.000225344, -0.00354224, -1797.27, 0, 0, 0.00120473, 0.0001817, -4.03795e-08, 1.56849e-07, -1.85156e-07, 2.59286e-07, 0, 0, 1.01145e+06, 1.01145e+06, 0, 1.07252e-07
143, -25.4349, -12.7023, -35.1959, 33.6022, 0.00356351, 0.000172254, -0.000247988, -0.00355032, -1797.27, 0, 0, 0.00120473, 0.0001817, -4.1409e-08, 1.61128e-07, -1.97266e-07, 2.79957e-07, 0, 0, 1.01145e+06, 1.01145e+06, 0, 1.07556e-07
144, -25.4349, -12.7023, -35.3929, 33.7993, 0.00363865, 0.000177022, -0.000262506, -0.00362463, -1797.27, 0, 0, 0.00120473, 0.0001817, -4.34137e-08, 1.68017e-07, -1.94096e-07, 2.76499e-07, 0, 0, 1.01145e+06, 1.01145e+06, 0, 1.09824e-07
145, -25.4349, -12.7023, -35.59, 33.9963, 0.00369136, 0.000181963, -0.000273279, -0.00367659, -1797.27, 0, 0, 0.00120473, 0.0001817, -4.70507e-08, 1.82864e-07, -2.02552e-07, 2.87656e-07, 0, 0, 1.01145e+06, 1.01145e+06, 0, 1.11415e-07
146, -25.4349, -12.7023, -35.787, 34.1933, 0.00375561, 0.00018456, -0.000284297, -0.00374021, -1797.27, 0, 0, 0.00120473, 0.0001817, -5.03485e-08, 1.96328e-07, -2.10448e-07, 2.97257e-07, 0, 0, 1.01145e+06, 1.01145e+06, 0, 1.13354e-07
147, -25.4349, -12.7023, -35.984, 34.3904, 0.00379924, 0.000176538, -0.000291183, -0.00378382, -1797.27, 0, 0, 0.00120473, 0.0001817, -5.20091e-08, 2.0479e-07, -2.26196e-07, 3.14322e-07, 0, 0, 1.01145e+06, 1.01145e+06, 0, 1.14671e-07
148, -25.4349, -12.7023, -36.181, 34.5874, 0.00373724, 0.000163387, -0.000288687, -0.00372229, -1797.27, 0, 0, 0.00120473, 0.0001817, -5.31314e-08, 2.17199e-07, -2.68254e-07, 3.64349e-07, 0, 0, 1.01145e+06, 1.01145e+06, 0, 1.128e-07
149, -25.4349, -12.7023, -36.3781, 34.7844, 0.00367525, 0.000150235, -0.00028619, -0.00366076, -1797.27, 0, 0, 0.00120473, 0.0001817, -5.42536e-08, 2.29608e-07, -3.10313e-07, 4.14375e-07, 0, 0, 1.01145e+06, 1.01145e+06, 0, 1.10929e-07
150, -25.4349, -12.7023, -36.5751, 34.9814, 0.00378498, 0.000141242, -0.000302751, -0.00377005, -1797.27, 0, 0, 0.00120473, 0.0001817, -5.73569e-08, 2.44953e-07, -3.39093e-07, 4.42569e-07, 0, 0, 1.01145e+06, 1.01145e+06, 0, 1.1424e-07
151, -25.4349, -12.7023, -36.7721, 35.1785, 0.00372997, 0.000130628, -0.000316715, -0.003714, -1797.27, 0, 0, 0.00120473, 0.0001817, -5.91894e-08, 2.58241e-07, -3.46031e-07, 4.58884e-07, 0, 0, 1.01145e+06, 1.01145e+06, 0, 1.1258e-07
152, -25.4349, -12.7023, -36.9692, 35.3755, 0.00372531, 0.000121974, -0.000312638, -0.00371, -1797.27, 0, 0, 0.00120473, 0.0001817, -6.02739e-08, 2.61935e-07, -3.51794e-07, 4.69931e-07, 0, 0, 1.01145e+06, 1.01145e+06, 0, 1.1244e-07
153, -25.4349, -12.7023, -37.1662, 35.5725, 0.00382165, 0.000129003, -0.000312095, -0.00380661, -1797.27, 0, 0, 0.00120473, 0.0001817, -6.24435e-08, 2.59249e-07, -3.4732e-07, 4.61323e-07, 0, 0, 1.01145e+06, 1.01145e+06, 0, 1.15347e-07
154, -25.4349, -12.7023, -37.3632, 35.7696, 0.0038628, 0.000140165, -0.00031081, -0.00384765, -1797.27, 0, 0, 0.00120473, 0.0001817, -6.368e-08, 2.61547e-07, -3.395e-07, 4.53372e-07, 0, 0, 1.01145e+06, 1.01145e+06, 0, 1.16589e-07
155, -25.4349, -12.7023, -37.5602, 35.9666, 0.00381672, 0.000144404, -0.000315766, -0.00380064, -1797.27, 0, 0, 0.00120473, 0.0001817, -6.50785e-08, 2.66585e-07, -3.40076e-07, 4.59575e-07, 0, 0, 1.01145e+06, 1.01145e+06, 0, 1.15198e-07
156, -25.4349, -12.7023, -37.7573, 36.1636, 0.00379426, 0.000147604, -0.000327399, -0.00377683, -1797.27, 0, 0, 0.00120473, 0.0001817, -6.62794e-08, 2.72793e-07, -3.50929e-07, 4.74192e-07, 0, 0, 1.01145e+06, 1.01145e+06, 0, 1.14521e-07
157, -25.4349, -12.7023, -37.9543, 36.3606, 0.00383719, 0.000154415, -0.000340144, -0.0038186, -1797.27, 0, 0, 0.00120473, 0.0001817, -6.68726e-08, 2.797e-07, -3.65424e-07, 4.88175e-07, 0, 0, 1.01145e+06, 1.01145e+06, 0, 1.15816e-07
158, -25.4349, -12.7023, -38.1513, 36.5577, 0.00388012, 0.000161225, -0.000352889, -0.00386036, -1797.27, 0, 0, 0.00120473, 0.0001817, -6.74657e-08, 2.86607e-07, -3.7992e-07, 5.02158e-07, 0, 0, 1.01145e+06, 1.01145e+06, 0, 1.17112e-07
159, -25.4349, -12.7023, -38.3484, 36.7547, 0.00392306, 0.000168035, -0.000365633, -0.00390212, -1797.27, 0, 0, 0.00120473, 0.0001817, -6.80588e-08, 2.93514e-07, -3.94416e-07, 5.16141e-07, 0, 0, 1.01145e+06, 1.01145e+06, 0, 1.18408e-07
160, -25.4349, -12.7023, -38.5454, 36.9517, 0.00393294, 0.000182432, -0.000372586, -0.00391081, -1797.27, 0, 0, 0.00120473, 0.0001817, -6.70764e-08, 2.98166e-07, -3.9415e-07, 5.20312e-07, 0, 0, 1.01145e+06, 1.01145e+06, 0, 1.18706e-07
161, -25.4349, -12.7023, -38.7424, 37.1488, 0.00391623, 0.000190069, -0.0003562, -0.00389529, -1797.27, 0, 0, 0.00120473, 0.0001817, -5.95812e-08, 3.10389e-07, -3.64235e-07, 5.04935e-07, 0, 0, 1.01145e+06, 1.01145e+06, 0, 1.18202e-07
162, -25.4349, -12.7108, -38.9866, 37.3931, 0.00388565, 0.000163951, -0.000307748, -0.00386962, -1797.27, 0, 0, 0.00120473, 0.0001817, -4.18204e-08, 3.26624e-07, -3.20043e-07, 4.69715e-07, 0, 0, 1.01145e+06, 1.01145e+06, 0, 1.17279e-07
163, -25.4349, -12.7194, -39.2307, 37.6374, 0.00380099, 0.000143771, -0.000263319, -0.00378889, -1797.27, 0, 0, 0.00120473, 0.0001817, -2.60807e-08, 3.34456e-07, -2.75396e-07, 4.35813e-07, 0, 0, 1.01145e+06, 1.01145e+06, 0, 1.14724e-07
164, -25.4349, -12.728, -39.4749, 37.8816, 0.00377745, 0.000159205, -0.000221576, -0.00376721, -1797.27, 0, 0, 0.00120473, 0.0001817, -2.28416e-08, 3.31556e-07, -2.76159e-07, 4.46652e-07, 0, 0, 1.01145e+06, 1.01145e+06, 0, 1.14013e-07
165, -25.4349, -12.7365, -39.719, 38.1259, 0.0037019, 0.000173555, -0.000175324, -0.00369322, -1797.27, 0, 0, 0.00120473, 0.0001817, -2.3008e-08, 3.3703e-07, -2.8743e-07, 4.85082e-07, 0, 0, 1.01145e+06, 1.01145e+06, 0, 1.11733e-07
166, -25.4349, -12.7451, -39.9631, 38.3702, 0.00368487, 0.000174462, -0.000140571, -0.00367772, -1797.27, 0, 0, 0.00120473, 0.0001817, -2.23138e-08, 3.45759e-07, -2.86833e-07, 5.00868e-07, 0, 0, 1.01145e+06, 1.01145e+06, 0, 1.11219e-07
167, -25.4349, -12.7537, -40.2073, 38.6145, 0.00395923, 0.000145001, -8.49567e-05, -0.00395452, -1797.27, 0, 0, 0.00120473, 0.0001817, -1.41957e-08, 3.58174e-07, -2.64442e-07, 4.708e-07, 0, 0, 1.01145e+06, 1.01145e+06, 0, 1.195e-07
168, -25.4349, -12.7622, -40.4514, 38.8588, 0.00419263, 0.000119357, -3.28937e-05, -0.00419011, -1797.27, 0, 0, 0.00120473, 0.0001817, -6.22875e-09, 3.70424e-07, -2.42043e-07, 4.45319e-07, 0, 0, 1.01145e+06, 1.01145e+06, 0, 1.26545e-07
169, -25.4349, -12.7708, -40.6956, 39.1031, 0.00430445, 9.29731e-05, 4.77728e-06, -0.00430285, -1797.27, 0, 0, 0.00120473, 0.0001817, 2.81321e-09, 3.7996e-07, -2.35929e-07, 4.52179e-07, 0, 0, 1.01145e+06, 1.01145e+06, 0, 1.29919e-07
170, -25.4349, -12.7794, -40.9397, 39.3474, 0.00449096, 5.91097e-05, 6.52886e-05, -0.00448911, -1797.27, 0, 0, 0.00120473, 0.0001817, 1.38783e-08, 3.77554e-07, -2.66509e-07, 4.68377e-07, 0, 0, 1.01145e+06, 1.01145e+06, 0, 1.35549e-07
171, -25.4349, -12.7879, -41.1839, 39.5917, 0.00469376, 3.28964e-05, 9.72883e-05, -0.00469157, -1797.27, 0, 0, 0.00120473, 0.0001817, 2.27214e-08, 3.84864e-07, -2.97428e-07, 4.8997e-07, 0, 0, 1.01145e+06, 1.01145e+06, 0, 1.4167e-07
172, -25.4349, -12.7965, -41.428, 39.836, 0.00508313, 5.46287e-06, 6.94365e-05, -0.0050818, -1797.27, 0, 0, 0.00120473, 0.0001817, 2.98762e-08, 4.04681e-07, -2.72584e-07, 4.94197e-07, 0, 0, 1.01145e+06, 1.01145e+06, 0, 1.53422e-07
173, -25.4349, -12.8051, -41.6722, 40.0803, 0.00544913, -2.51193e-05, 3.99034e-05, -0.00544828, -1797.27, 0, 0, 0.00120473, 0.0001817, 3.54566e-08, 4.27782e-07, -2.49132e-07, 5.08304e-07, 0, 0, 1.01145e+06, 1.01145e+06, 0, 1.64469e-07
174, -25.4349, -12.8136, -41.9163, 40.3246, 0.0058597, -0.000146085, 1.97362e-05, -0.00585074, -1797.27, 0, 0, 0.00120473, 0.0001817, 3.88202e-08, 4.37679e-07, -2.40083e-07, 5.15467e-07, 0, 0, 1.01145e+06, 1.01145e+06, 0, 1.76861e-07
175, -25.4349, -12.8222, -42.1605, 40.5689, 0.00640976, -0.000310764, -2.16193e-05, -0.00639531, -1797.27, 0, 0, 0.00120473, 0.0001817, 4.18357e-08, 4.3166e-07, -2.64946e-07, 5.1399e-07, 0, 0, 1.01145e+06, 1.01145e+06, 0, 1.93463e-07
176, -25.4349, -12.8308, -42.4046, 40.8132, 0.00690464, -0.000474932, -6.18305e-05, -0.00688325, -1797.27, 0, 0, 0.00120473, 0.0001817, 4.46997e-08, 4.231e-07, -2.99334e-07, 5.26614e-07, 0, 0, 1.01145e+06, 1.01145e+06, 0, 2.084e-07
177, -25.4349, -12.8393, -42.6487, 41.0575, 0.00724847, -0.000639288, -9.05794e-05, -0.00721883, -1797.27, 0, 0, 0.00120473, 0.0001817, 4.57459e-08, 4.18434e-07, -3.33279e-07, 5.47323e-07, 0, 0, 1.01145e+06, 1.01145e+06, 0, 2.18778e-07
178, -25.4349, -12.8479, -42.8929, 41.3018, 0.00790377, -0.000772496, -5.38834e-05, -0.00786443, -1797.27, 0, 0, 0.00120473, 0.0001817, 4.52503e-08, 4.10214e-07, -3.76635e-07, 5.70098e-07, 0, 0, 1.01145e+06, 1.01145e+06, 0, 2.38556e-07
179, -25.4349, -12.8565, -43.137, 41.5461, 0.00858881, -0.000912532, -1.38683e-05, -0.00853849, -1797.27, 0, 0, 0.00120473, 0.0001817, 4.27862e-08, 4.01008e-07, -4.193e-07, 5.9185e-07, 0, 0, 1.01145e+06, 1.01145e+06, 0, 2.59233e-07
180, -25.4349, -12.865, -43.3812, 41.7904, 0.00915656, -0.00105027, 2.64529e-05, -0.00909384, -1797.27, 0, 0, 0.00120473, 0.0001817, 4.04672e-08, 3.91568e-07, -4.6754e-07, 6.24709e-07, 0, 0, 1.01145e+06, 1.01145e+06, 0, 2.76369e-07
181, -25.4349, -12.8736, -43.6253, 42.0347, 0.00969334, -0.00118536, 6.87957e-05, -0.00961794, -1797.27, 0, 0, 0.00120473, 0.0001817, 3.7863e-08, 3.8163e-07, -5.17515e-07, 6.59254e-07, 0, 0, 1.01145e+06, 1.01145e+06, 0, 2.9257e-07
182, -25.4349, -12.8822, -43.8866, 42.2961, 0.00994774, -0.000994579, 0.000172229, -0.00987781, -1797.27, 0, 0, 0.00120473, 0.0001817, 3.73634e-08, 3.48549e-07, -6.04776e-07, 7.07763e-07, 0, 0, 1.01145e+06, 1.01145e+06, 0, 3.00249e-07
183, -25.4349, -12.8907, -44.1479, 42.5575, 0.0100735, -0.000740211, 0.00030084, -0.0100119, -1797.27, 0, 0, 0.00120473, 0.0001817, 4.22163e-08, 3.09228e-07, -6.92417e-07, 7.7529e-07, 0, 0, 1.01145e+06, 1.01145e+06, 0, 3.04043e-07
184, -25.4349, -12.8993, -44.4092, 42.8189, 0.0101981, -0.00049128, 0.000426462, -0.0101451, -1797.27, 0, 0, 0.00120473, 0.0001817, 4.70174e-08, 2.69378e-07, -7.7771e-07, 8.41905e-07, 0, 0, 1.01145e+06, 1.01145e+06, 0, 3.07804e-07
185, -25.4349, -12.9079, -44.6704, 43.0803, 0.0103227, -0.000242353, 0.000552083, -0.0102784, -1797.27, 0, 0, 0.00120473, 0.0001817, 5.18184e-08, 2.29529e-07, -8.63001e-07, 9.0852e-07, 0, 0, 1.01145e+06, 1.01145e+06, 0, 3.11565e-07
186, -25.4349, -12.9164, -44.9317, 43.3418, 0.0104532, 8.14754e-05, 0.000680823, -0.0103813, -1797.27, 0, 0, 0.00120473, 0.0001817, 6.20611e-08, 1.92265e-07, -9.57285e-07, 9.85258e-07, 0, 0, 1.01145e+06, 1.01145e+06, 0, 3.15504e-07
187, -25.4349, -12.925, -45.193, 43.6032, 0.0100568, 0.00181655, 0.000903089, -0.00907095, -1797.27, 0, 0, 0.00120473, 0.0001817, 7.70585e-08, 1.40105e-07, -1.1957e-06, 1.22113e-06, 0, 0, 1.01145e+06, 1.01145e+06, 0, 3.03541e-07
188, -25.4349, -12.9336, -45.4543, 43.8646, 0.00888538, 0.00308952, 0.00108743, -0.00715002, -1797.27, 0, 0, 0.00120473, 0.0001817, 4.26478e-08, 5.42242e-08, -1.34327e-06, 1.35788e-06, 0, 0, 1.01145e+06, 1.01145e+06, 0, 2.68184e-07
189, -25.4349, -12.9421, -45.7155, 44.126, 0.007594, 0.00406593, 0.00127099, -0.00539744, -1797.27, 0, 0, 0.00120473, 0.0001817, 5.63369e-08, -3.38121e-08, -1.43608e-06, 1.44581e-06, 0, 0, 1.01145e+06, 1.01145e+06, 0, 2.29207e-07
190, -25.4349, -12.9507, -45.9768, 44.3874, 0.0083337, 0.00614969, 0.00169435, -0.00258697, -1797.27, 0, 0, 0.00120473, 0.0001817, 5.02135e-08, -9.36469e-08, -1.60346e-06, 1.61106e-06, 0, 0, 1.01145e+06, 1.01145e+06, 0, 2.51533e-07
191, -25.4349, -12.9593, -46.2381, 44.6489, 0.00997206, 0.00869532, 0.00222388, 0.000652089, -1797.27, 0, 0, 0.00120473, 0.0001817, 2.63621e-08, -1.45535e-07, -1.79512e-06, 1.80185e-06, 0, 0, 1.01145e+06, 1.01145e+06, 0, 3.00983e-07
192, -25.4349, -12.9678, -46.4994, 44.9103, 0.0134506, 0.0119018, 0.00213664, 0.00480598, -1797.27, 0, 0, 0.00120473, 0.0001817, 9.69434e-08, -2.36952e-08, -2.12295e-06, 2.18588e-06, 0, 0, 1.01145e+06, 1.01145e+06, 0, 4.05975e-07
193, -25.4349, -12.9764, -46.7607, 45.1717, 0.0215376, 0.0167887, 0.00140187, 0.0122873, -1797.27, 0, 0, 0.00120473, 0.0001817, 4.02529e-08, 7.30607e-08, -2.53603e-06, 2.61545e-06, 0, 0, 1.01145e+06, 1.01145e+06, 0, 6.50062e-07
194, -25.4349, -12.985, -47.0219, 45.4331, 0.0296247, 0.0216755, 0.000667089, 0.0197687, -1797.27, 0, 0, 0.00120473, 0.0001817, -1.64363e-08, 1.6982e-07, -2.94911e-06, 3.04502e-06, 0, 0, 1.01145e+06, 1.01145e+06, 0, 8.94149e-07
195, -25.4349, -12.9935, -47.2832, 45.6945, 0.0406673, 0.0276583, -0.000923161, 0.0294583, -1797.27, 0, 0, 0.00120473, 0.0001817, 3.44431e-07, 1.03338e-06, -4.71409e-06, 5.04874e-06, 0, 0, 1.01145e+06, 1.01145e+06, 5.10745e-11, 1.22745e-06
196, -25.4349, -13.0021, -47.5445, 45.9559, 0.0549695, 0.0347103, -0.00202979, 0.0422583, -1797.27, 0, 0, 0.00120473, 0.0001817, 4.78631e-07, 1.90852e-06, -6.89305e-06, 7.34629e-06, 0, 0, 1.01145e+06, 1.01145e+06, 1.45119e-10, 1.65912e-06
197, -25.4349, -13.0107, -47.8058, 46.2174, 0.0690666, 0.0415753, -0.004374, 0.0546835, -1797.27, 0, 0, 0.00120473, 0.0001817, 9.53115e-07, 3.18973e-06, -9.21578e-06, 1.00137e-05, 0, 0, 1.01145e+06, 1.01145e+06, 2.41992e-10, 2.08461e-06
198, -25.4349, -13.0192, -48.067, 46.4788, 0.082597, 0.0479759, -0.00802238, 0.0662709, -1797.27, 0, 0, 0.00120473, 0.0001817, 2.07624e-06, 5.13956e-06, -1.2658e-05, 1.41682e-05, 0, 0, 1.01145e+06, 1.01145e+06, 3.49274e-10, 2.49299e-06
199, -25.4349, -13.0278, -48.3283, 46.7402, 0.0968542, 0.0543626, -0.0116768, 0.078758, -1797.27, 0, 0, 0.00120473, 0.0001817, 3.36251e-06, 7.32365e-06, -1.6806e-05, 1.89377e-05, 0, 0, 1.01145e+06, 1.01145e+06, 4.69511e-10, 2.92331e-06
200, -25.4349, -13.0364, -48.5896, 47.0016, 0.111963, 0.0591482, -0.0183328, 0.0929125, -1797.27, 0, 0, 0.00120473, 0.0001817, 5.04448e-06, 1.05606e-05, -1.99315e-05, 2.31571e-05, 0, 0, 1.01145e+06, 1.01145e+06, 6.29122e-10, 3.37933e-06
201, -25.4349, -13.0449, -48.8509, 47.263, 0.123233, 0.0612903, -0.0228632, 0.10417, -1797.27, 0, 0, 0.00120473, 0.0001817, 6.43911e-06, 1.1229e-05, -2.07868e-05, 2.46513e-05, 0, 0, 1.01145e+06, 1.01145e+06, 7.59263e-10, 3.71949e-06
202, -25.4349, -13.0406, -49.0479, 47.4601, 0.12637, 0.0563119, -0.0251016, 0.109372, -1797.27, 0, 0, 0.00120473, 0.0001817, 7.08229e-06, 1.17645e-05, -2.04015e-05, 2.48803e-05, 0, 0, 1.01145e+06, 1.01145e+06, 8.18707e-10, 3.81418e-06
203, -25.4349, -13.0364, -49.2449, 47.6572, 0.128177, 0.0509974, -0.026308, 0.114201, -1797.27, 0, 0, 0.00120473, 0.0001817, 7.16635e-06, 1.05749e-05, -1.96141e-05, 2.35633e-05, 0, 0, 1.01145e+06, 1.01145e+06, 8.34975e-10, 3.86873e-06
204, -25.4349, -13.0321, -49.442, 47.8543, 0.126055, 0.0390476, -0.0248634, 0.116948, -1797.27, 0, 0, 0.00120473, 0.0001817, 5.76424e-06, 9.44905e-06, -1.7867e-05, 2.10918e-05, 0, 0, 1.01145e+06, 1.01145e+06, 7.98766e-10, 3.80465e-06
205, -25.4349, -13.0278, -49.639, 48.0513, 0.122968, 0.024237, -0.0209235, 0.118088, -1797.27, 0, 0, 0.00120473, 0.0001817, 3.48155e-06, 9.35617e-06, -1.68008e-05, 1.97385e-05, 0, 0, 1.01145e+06, 1.01145e+06, 7.94527e-10, 3.71151e-06
206, -25.4349, -13.0235, -49.836, 48.2484, 0.119612, 0.00622809, -0.0163073, 0.11801, -1797.27, 0, 0, 0.00120473, 0.0001817, 5.39442e-07, 7.94291e-06, -1.57693e-05, 1.78626e-05, 0, 0, 1.01145e+06, 1.01145e+06, 7.39901e-10, 3.61021e-06
207, -25.4349, -13.0192, -50.0331, 48.4455, 0.120925, -0.0122778, -0.0108256, 0.119205, -1797.27, 0, 0, 0.00120473, 0.0001817, -2.70621e-06, 7.5286e-06, -1.66958e-05, 1.86444e-05, 0, 0, 1.01145e+06, 1.01145e+06, 7.33639e-10, 3.64984e-06
208, -25.4349, -13.0149, -50.2301, 48.6426, 0.124037, -0.0279182, -0.00544181, 0.119824, -1797.27, 0, 0, 0.00120473, 0.0001817, -5.36478e-06, 9.16901e-06, -1.86625e-05, 2.17186e-05, 0, 0, 1.01145e+06, 1.01145e+06, 7.9819e-10, 3.74375e-06
209, -25.4349, -13.0107, -50.4271, 48.8396, 0.125214, -0.0423674, -0.00263144, 0.117389, -1797.27, 0, 0, 0.00120473, 0.0001817, -6.74525e-06, 9.45629e-06, -2.0283e-05, 2.35788e-05, 0, 0, 1.01145e+06, 1.01145e+06, 8.04397e-10, 3.77928e-06
210, -25.4349, -13.0064, -50.6241, 49.0367, 0.125899, -0.0519463, -0.0010822, 0.114486, -1797.27, 0, 0, 0.00120473, 0.0001817, -7.12058e-06, 1.06101e-05, -2.21751e-05, 2.57121e-05, 0, 0, 1.01145e+06, 1.01145e+06, 7.92466e-10, 3.79997e-06
211, -25.4349, -13.0021, -50.8212, 49.2338, 0.123155, -0.0580329, -4.87403e-05, 0.107882, -1797.27, 0, 0, 0.00120473, 0.0001817, -6.49988e-06, 1.05708e-05, -2.16324e-05, 2.51053e-05, 0, 0, 1.01145e+06, 1.01145e+06, 7.62804e-10, 3.71714e-06
212, -25.4349, -12.9978, -51.0182, 49.4309, 0.117114, -0.0626467, 0.00041269, 0.0983203, -1797.27, 0, 0, 0.00120473, 0.0001817, -5.78762e-06, 1.04358e-05, -2.04573e-05, 2.39163e-05, 0, 0, 1.01145e+06, 1.01145e+06, 6.87171e-10, 3.53479e-06
213, -25.4349, -12.9935, -51.2152, 49.6279, 0.108772, -0.0637871, -0.0008098, 0.0876373, -1797.27, 0, 0, 0.00120473, 0.0001817, -5.40428e-06, 1.0265e-05, -1.93497e-05, 2.26957e-05, 0, 0, 1.01145e+06, 1.01145e+06, 5.93926e-10, 3.28301e-06
214, -25.4349, -12.9892, -51.4123, 49.825, 0.100796, -0.0644743, -0.00187487, 0.0768032, -1797.27, 0, 0, 0.00120473, 0.0001817, -4.68884e-06, 9.78042e-06, -1.72967e-05, 2.05173e-05, 0, 0, 1.01145e+06, 1.01145e+06, 5.09257e-10, 3.0423e-06
215, -25.4349, -12.985, -51.6093, 50.0221, 0.0880843, -0.0626733, -0.00402827, 0.0611098, -1797.27, 0, 0, 0.00120473, 0.0001817, -3.26106e-06, 8.6357e-06, -1.28351e-05, 1.60699e-05, 0, 0, 1.01145e+06, 1.01145e+06, 3.90508e-10, 2.65861e-06
216, -25.4349, -12.9807, -51.8063, 50.2192, 0.0791167, -0.0627281, -0.00587389, 0.0451667, -1797.27, 0, 0, 0.00120473, 0.0001817, -1.99172e-06, 8.25789e-06, -8.44487e-06, 1.21702e-05, 0, 0, 1.01145e+06, 1.01145e+06, 3.13514e-10, 2.38795e-06
217, -25.4349, -12.9764, -52.0034, 50.4163, 0.0746111, -0.0652688, -0.00821684, 0.0273009, -1797.27, 0, 0, 0.00120473, 0.0001817, -9.71439e-07, 7.91875e-06, -4.88634e-06, 1.0018e-05, 0, 0, 1.01145e+06, 1.01145e+06, 2.74821e-10, 2.25196e-06
218, -25.4349, -12.9721, -52.2004, 50.6133, 0.075954, -0.0698856, -0.0122008, 0.0067065, -1797.27, 0, 0, 0.00120473, 0.0001817, -4.0767e-07, 7.98101e-06, -9.16263e-07, 9.64055e-06, 0, 0, 1.01145e+06, 1.01145e+06, 2.85082e-10, 2.29249e-06
219, -25.4349, -12.9678, -52.3974, 50.8104, 0.0802049, -0.0753329, -0.0163517, -0.0129425, -1797.27, 0, 0, 0.00120473, 0.0001817, 5.86271e-08, 8.01117e-06, 3.63394e-06, 1.002e-05, 0, 0, 1.01145e+06, 1.01145e+06, 3.22574e-10, 2.42079e-06
220, -25.4349, -12.9635, -52.5944, 51.0075, 0.0998004, -0.0868274, -0.0193467, -0.0384431, -1797.27, 0, 0, 0.00120473, 0.0001817, 4.79026e-07, 8.00052e-06, 7.58391e-06, 1.16894e-05, 0, 0, 1.01145e+06, 1.01145e+06, 5.56904e-10, 3.01224e-06
221, -25.4349, -12.9593, -52.7915, 51.2046, 0.127384, -0.10193, -0.0221498, -0.0672974, -1797.27, 0, 0, 0.00120473, 0.0001817, 1.24495e-06, 8.58182e-06, 1.24979e-05, 1.5898e-05, 0, 0, 1.01145e+06, 1.01145e+06, 9.00883e-10, 3.84477e-06
222, -25.4349, -12.9721, -53.057, 51.4704, 0.16505, -0.122364, -0.0252105, -0.106912, -1797.27, 0, 0, 0.00120473, 0.0001817, 2.06358e-06, 9.16839e-06, 1.90178e-05, 2.14163e-05, 0, 0, 1.01145e+06, 1.01145e+06, 1.37273e-09, 4.98162e-06
223, -25.4349, -12.985, -53.3226, 51.7363, 0.240942, -0.160221, -0.0303647, -0.174602, -1797.27, 0, 0, 0.00120473, 0.0001817, 3.10389e-06, 9.30582e-06, 2.69485e-05, 2.93331e-05, 0, 0, 1.01145e+06, 1.01145e+06, 3.32589e-09, 7.27227e-06
224, -25.4349, -12.9978, -53.5882, 52.0022, 0.323396, -0.202187, -0.0371718, -0.247059, -1797.27, 0, 0, 0.00120473, 0.0001817, 4.74932e-06, 1.00664e-05, 3.52535e-05, 3.7814e-05, 0, 0, 1.01145e+06, 1.01145e+06, 5.50984e-09, 9.76094e-06
225, -25.4349, -13.0107, -53.8537, 52.268, 0.430907, -0.259033, -0.0367281, -0.338768, -1797.27, 0, 0, 0.00120473, 0.0001817, 6.17897e-06, 8.47368e-06, 4.49496e-05, 4.72294e-05, 0, 0, 1.01145e+06, 1.01145e+06, 1.0006e-08, 1.30059e-05
226, -25.4349, -13.0235, -54.1193, 52.5339, 0.560934, -0.323212, -0.0364367, -0.451517, -1797.27, 0, 0, 0.00120473, 0.0001817, 1.11028e-05, 8.0042e-06, 5.08209e-05, 5.44457e-05, 0, 0, 1.01145e+06, 1.01145e+06, 1.65432e-08, 1.69304e-05
227, -25.4349, -13.0364, -54.3848, 52.7998, 0.718922, -0.391096, -0.0420581, -0.596435, -1797.27, 0, 0, 0.00120473, 0.0001817, 1.59903e-05, 7.91155e-06, 5.40337e-05, 5.91491e-05, 0, 0, 1.01145e+06, 1.01145e+06, 2.72775e-08, 2.16989e-05
228, -25.4349, -13.0492, -54.6504, 53.0657, 0.919218, -0.474518, -0.0496518, -0.782806, -1797.27, 0, 0, 0.00120473, 0.0001817, 1.95394e-05, 5.51766e-06, 5.6862e-05, 6.25631e-05, 0, 0, 1.01145e+06, 1.01145e+06, 4.45271e-08, 2.77444e-05
229, -25.4349, -13.0621, -54.916, 53.3315, 1.12509, -0.542723, -0.0493509, -0.974359, -1797.28, 0, 0, 0.00120473, 0.0001817, 2.68235e-05, 2.26076e-06, 4.84393e-05, 7.09069e-05, 0, 0, 1.01145e+06, 1.01145e+06, 6.39847e-08, 3.39581e-05
230, -25.4349, -13.0749, -55.1815, 53.5974, 1.38369, -0.6077, -0.0329877, -1.23398, -1797.28, 0, 0, 0.00120473, 0.0001817, 2.89278e-05, 2.15695e-06, 4.20206e-05, 5.25751e-05, 0, 0, 1.01145e+06, 1.01145e+06, 9.94147e-08, 4.17634e-05
231, -25.4349, -13.0878, -55.4471, 53.8633, 1.63983, -0.661364, -0.0283402, -1.48856, -1797.28, 0, 0, 0.00120473, 0.0001817, 3.04656e-05, 6.31742e-06, 2.03188e-05, 5.42842e-05, 0, 0, 1.01145e+06, 1.01145e+06, 1.34577e-07, 4.94943e-05
232, -25.4349, -13.1006, -55.7126, 54.1291, 1.95624, -0.70553, -0.014046, -1.82406, -1797.28, 0, 0, 0.00120473, 0.0001817, 3.0133e-05, -1.01138e-05, 2.452e-06, 4.01678e-05, 0, 0, 1.01145e+06, 1.01145e+06, 1.97033e-07, 5.90445e-05
233, -25.4349, -13.1135, -55.9782, 54.395, 2.27226, -0.722221, 0.0143386, -2.14569, -1797.28, 0, 0, 0.00120473, 0.0001817, 3.40831e-05, -2.84924e-05, -4.79385e-05, 8.09515e-05, 0, 0, 1.01145e+06, 1.01145e+06, 2.5949e-07, 6.85828e-05
234, -25.4349, -13.1263, -56.2438, 54.6609, 2.57442, -0.706105, 0.0700816, -2.45926, -1797.28, 0, 0, 0.00120473, 0.0001817, 5.48751e-05, -3.66025e-05, -7.15468e-05, 0.000111421, 0, 0, 1.01145e+06, 1.01145e+06, 3.33673e-07, 7.77027e-05
235, -25.4349, -13.1392, -56.5093, 54.9268, 2.87308, -0.643665, 0.0901866, -2.78766, -1797.29, 0, 0, 0.00120473, 0.0001817, 7.50835e-05, -4.34701e-05, -9.26209e-05, 0.000137817, 0, 0, 1.01145e+06, 1.01145e+06, 4.14272e-07, 8.6717e-05
236, -25.4349, -13.152, -56.7749, 55.1926, 3.18843, -0.577776, 0.106558, -3.1258, -1797.29, 0, 0, 0.00120473, 0.0001817, 9.87678e-05, -7.95162e-05, -0.000113194, 0.000174549, 0, 0, 1.01145e+06, 1.01145e+06, 5.08004e-07, 9.62351e-05
237, -25.4349, -13.1649, -57.0405, 55.4585, 3.66873, -0.597784, 0.182206, -3.60576, -1797.29, 0, 0, 0.00120473, 0.0001817, 0.000131501, -0.000124425, -8.62125e-05, 0.000207042, 0, 0, 1.01145e+06, 1.01145e+06, 6.80551e-07, 0.000110732
238, -25.4349, -13.1777, -57.306, 55.7244, 4.21827, -0.804892, 0.354285, -4.09794, -1797.29, 0, 0, 0.00120473, 0.0001817, 0.000107103, -0.000122179, -3.77382e-05, 0.000221088, 0, 0, 1.01145e+06, 1.01145e+06, 9.00849e-07, 0.000127318
239, -25.4349, -13.1905, -57.5716, 55.9903, 4.97594, -1.26632, 0.724198, -4.72328, -1797.29, 0, 0, 0.00120473, 0.0001817, 2.42338e-05, -9.03875e-05, 2.80865e-06, 0.000212582, 0, 0, 1.01145e+06, 1.01145e+06, 1.26395e-06, 0.000150187
240, -25.4349, -13.2034, -57.8371, 56.2561, 5.69201, -1.57599, 1.11929, -5.34361, -1797.3, 0, 0, 0.00120473, 0.0001817, -6.54057e-05, -0.000116919, -6.6608e-06, 0.000244211, 0, 0, 1.01145e+06, 1.01145e+06, 1.62585e-06, 0.0001718
241, -25.4349, -13.2162, -58.1027, 56.522, 5.76282, -0.0465107, 0.180324, -3.7746, -1797.3, 0, 0, 0.00120473, 0.0001817, -0.000207316, 0.000148514, -0.000148036, 0.000664289, 0, 0, 1.01145e+06, 1.01145e+06, 1.66368e-06, 0.000173937
242, -25.4349, -13.2462, -58.334, 56.7552, 5.67416, 0.746475, -0.285587, -3.0035, -1797.3, 0, 0, 0.00120473, 0.0001817, -0.000412804, 0.00025889, -0.000150543, 0.000949269, 0, 0, 1.01145e+06, 1.01145e+06, 1.61075e-06, 0.000171261
243, -25.4349, -13.2762, -58.5653, 56.9885, 6.31783, 1.71714, -0.991655, -1.98725, -1797.3, 0, 0, 0.00120473, 0.0001817, -0.000501612, 0.000551281, -0.000381203, 0.00110941, 0, 0, 1.01145e+06, 1.01145e+06, 2.06275e-06, 0.000190688
244, -25.4349, -13.3062, -58.7966, 57.2217, 7.40538, 3.82558, -2.76517, 0.412889, -1797.31, 0, 0, 0.00120473, 0.0001817, -0.000762138, 0.000836824, 0.000156973, 0.00139722, 0, 0, 1.01145e+06, 1.01145e+06, 2.85526e-06, 0.000223514
245, -25.4349, -13.3362, -59.0279, 57.4549, 8.17908, 6.24097, -4.14379, 3.17461, -1797.32, 0, 0, 0.00120473, 0.0001817, -0.00102543, 0.000925432, 0.000403404, 0.00167272, 0, 0, 1.01145e+06, 1.01145e+06, 3.43113e-06, 0.000246866
246, -25.4349, -13.3662, -59.2592, 57.6881, 13.0964, 8.6783, -5.83803, 7.4585, -1797.35, 0, 0, 0.00120473, 0.0001817, -0.00104475, 0.00110813, 0.000445892, 0.00187956, 0, 0, 1.01145e+06, 1.01145e+06, 1.10086e-05, 0.000395284
247, -25.4349, -13.3961, -59.4905, 57.9214, 17.234, 10.5997, -7.44044, 11.0515, -1797.38, 0, 0, 0.00120473, 0.0001817, -0.00109105, 0.00138128, 0.000362058, 0.00232769, 0, 0, 1.01145e+06, 1.01145e+06, 1.8439e-05, 0.000520166
248, -25.4349, -13.4261, -59.7218, 58.1546, 21.7806, 12.3829, -9.07576, 15.1859, -1797.44, 0, 0, 0.00120473, 0.0001817, -0.00116068, 0.00173229, 0.000396268, 0.0027296, 0, 0, 1.01145e+06, 1.01145e+06, 2.79395e-05, 0.000657396
249, -25.4349, -13.4561, -59.9531, 58.3878, 27.314, 13.9779, -10.7806, 20.6185, -1797.55, 0, 0, 0.00120473, 0.0001817, -0.00126926, 0.00219892, 0.000696886, 0.00298452, 0, 0, 1.01145e+06, 1.01145e+06, 4.12786e-05, 0.000824409
250, -25.4349, -13.4861, -60.1844, 58.6211, 32.8423, 15.5717, -12.4775, 26.0445, -1797.65, 0, 0, 0.00120473, 0.0001817, -0.00137685, 0.00266122, 0.00099454, 0.00323845, 0, 0, 1.01145e+06, 1.01145e+06, 5.46124e-05, 0.000991267
251, -25.4349, -13.5161, -60.4156, 58.8543, 37.6521, 16.3052, -14.0999, 30.7192, -1797.84, 0, 0, 0.00120473, 0.0001817, -0.00152138, 0.00305817, 0.00122075, 0.00388477, 0, 0, 1.01145e+06, 1.01145e+06, 7.2974e-05, 0.00113644
252, -25.4349, -13.5461, -60.6469, 59.0875, 42.0477, 16.7615, -15.751, 34.9036, -1798.04, 0, 0, 0.00120473, 0.0001817, -0.00171591, 0.00348516, 0.00144715, 0.00471709, 0, 0, 1.01145e+06, 1.01145e+06, 9.14596e-05, 0.00126911
253, -25.4349, -13.576, -60.8782, 59.3208, 46.4201, 17.2195, -17.3966, 39.0612, -1798.24, 0, 0, 0.00120473, 0.0001817, -0.00190944, 0.00391202, 0.0016646, 0.00554331, 0, 0, 1.01145e+06, 1.01145e+06, 0.000109833, 0.00140108
254, -25.4349, -13.606, -61.1095, 59.554, 52.1373, 16.266, -19.4393, 45.1724, -1798.51, 0, 0, 0.00120473, 0.0001817, -0.00201366, 0.00483374, 0.00209155, 0.0061893, 0, 0, 1.01145e+06, 1.01145e+06, 0.0001381, 0.00157364
255, -25.4349, -13.636, -61.3408, 59.7872, 58.2297, 14.8469, -21.2677, 51.7702, -1798.79, 0, 0, 0.00120473, 0.0001817, -0.00203394, 0.00581924, 0.00270057, 0.00689588, 0, 0, 1.01145e+06, 1.01145e+06, 0.000170547, 0.00175752
256, -25.4349, -13.666, -61.5721, 60.0205, 62.8121, 13.2854, -23.6526, 56.176, -1799.26, 0, 0, 0.00120473, 0.0001817, -0.00252712, 0.00693219, 0.00371536, 0.00833394, 0, 0, 1.01145e+06, 1.01145e+06, 0.000197372, 0.00189583
257, -25.4349, -13.696, -61.8034, 60.2537, 68.5269, 10.6809, -25.8979, 61.9879, -1799.79, 0, 0, 0.00120473, 0.0001817, -0.00283071, 0.00770404, 0.00517284, 0.00992953, 0, 0, 1.01145e+06, 1.01145e+06, 0.000236462, 0.00206832
258, -25.4349, -13.726, -62.0347, 60.4869, 74.2585, 7.45182, -28.5285, 67.5887, -1800.38, 0, 0, 0.00120473, 0.0001817, -0.00322908, 0.00875771, 0.0068947, 0.0119077, 0, 0, 1.01145e+06, 1.01145e+06, 0.000276043, 0.00224132
259, -25.4349, -13.7559, -62.266, 60.7201, 80.4188, 1.94019, -31.5637, 72.8457, -1801.16, 0, 0, 0.00120473, 0.0001817, -0.00398102, 0.0103853, 0.00921701, 0.014772, 0, 0, 1.01145e+06, 1.01145e+06, 0.000326609, 0.00242725
260, -25.4349, -13.7859, -62.4973, 60.9534, 87.8764, -3.91252, -33.3439, 79.6432, -1801.84, 0, 0, 0.00120473, 0.0001817, -0.0044547, 0.0113679, 0.0113303, 0.0171346, 0, 0, 1.01145e+06, 1.01145e+06, 0.000393438, 0.00265234
261, -25.4349, -13.8159, -62.7286, 61.1866, 97.3595, -10.5173, -34.8063, 87.9311, -1803.17, 0, 0, 0.00120473, 0.0001817, -0.00507604, 0.0130041, 0.0144122, 0.0207612, 0, 0, 1.01145e+06, 1.01145e+06, 0.000542604, 0.00293856
262, -25.4349, -13.8073, -62.8485, 61.3068, 105.246, -15.3452, -34.6141, 95.3253, -1804.26, 0, 0, 0.00120473, 0.0001817, -0.00521719, 0.0138102, 0.0167809, 0.0230977, 0, 0, 1.01145e+06, 1.01145e+06, 0.000675785, 0.00317659
263, -25.4349, -13.7988, -62.9685, 61.4271, 109.256, -19.6042, -34.7163, 98.9329, -1805.15, 0, 0, 0.00120473, 0.0001817, -0.00512932, 0.0145186, 0.0193738, 0.025316, 0, 0, 1.01144e+06, 1.01145e+06, 0.00072026, 0.00329763
264, -25.4349, -13.7902, -63.0884, 61.5473, 113.224, -23.9354, -34.8701, 102.327, -1806.11, 0, 0, 0.00120473, 0.0001817, -0.00513929, 0.0152502, 0.0219252, 0.0275501, 0, 0, 1.01144e+06, 1.01145e+06, 0.000765913, 0.00341741
265, -25.4349, -13.7816, -63.2083, 61.6676, 117.183, -29.1446, -35.3984, 104.677, -1807.34, 0, 0, 0.00120473, 0.0001817, -0.00552608, 0.0159327, 0.0244269, 0.0299426, 0, 0, 1.01144e+06, 1.01145e+06, 0.00081377, 0.0035369
266, -25.4349, -13.7731, -63.3283, 61.7878, 121.981, -37.3878, -36.7774, 106.144, -1808.69, 0, 0, 0.00120473, 0.0001817, -0.0057939, 0.0158673, 0.0275528, 0.0328273, 0, 0, 1.01144e+06, 1.01145e+06, 0.000848153, 0.0036817
267, -25.4349, -13.7645, -63.4482, 61.908, 127.558, -46.1301, -38.5682, 107.765, -1810.42, 0, 0, 0.00120473, 0.0001817, -0.00613511, 0.0163017, 0.0309698, 0.0360823, 0, 0, 1.01144e+06, 1.01145e+06, 0.000893396, 0.00385002
268, -25.4349, -13.7559, -63.5681, 62.0283, 135.206, -56.2262, -40.578, 110.313, -1812.87, 0, 0, 0.00120473, 0.0001817, -0.0064984, 0.0175605, 0.0353009, 0.0404134, 0, 0, 1.01144e+06, 1.01145e+06, 0.000973485, 0.00408088
269, -25.4349, -13.7474, -63.688, 62.1485, 144.798, -67.6821, -39.7817, 115.507, -1815.05, 0, 0, 0.00120473, 0.0001817, -0.00628718, 0.0178547, 0.0409715, 0.0460668, 0, 0, 1.01143e+06, 1.01145e+06, 0.00110678, 0.00437037
270, -25.4349, -13.7388, -63.808, 62.2687, 154.389, -79.1377, -38.9855, 120.702, -1817.24, 0, 0, 0.00120473, 0.0001817, -0.00607598, 0.0181489, 0.046642, 0.0517201, 0, 0, 1.01143e+06, 1.01145e+06, 0.00124008, 0.00465986
271, -25.4349, -13.7302, -63.9279, 62.389, 167.574, -89.997, -38.4103, 131.137, -1820.07, 0, 0, 0.00120473, 0.0001817, -0.00572176, 0.0186843, 0.0517516, 0.0566834, 0, 0, 1.01143e+06, 1.01145e+06, 0.00148624, 0.00505783
272, -25.4349, -13.7217, -64.0478, 62.5092, 177.054, -101.797, -39.2303, 133.866, -1826.15, 0, 0, 0.00120473, 0.0001817, -0.00541294, 0.0206297, 0.0597573, 0.0644031, 0, 0, 1.01142e+06, 1.01144e+06, 0.00160835, 0.00534396
273, -25.4349, -13.7131, -64.1678, 62.6294, 188.603, -113.348, -38.2143, 139.499, -1832.12, 0, 0, 0.00120473, 0.0001817, -0.00476489, 0.0212252, 0.0659402, 0.0704792, 0, 0, 1.01142e+06, 1.01144e+06, 0.00182597, 0.00569253
274, -25.4349, -13.7045, -64.2877, 62.7497, 201.568, -124.876, -36.1805, 147.26, -1838.01, 0, 0, 0.00120473, 0.0001817, -0.00391578, 0.0210679, 0.0711036, 0.0756208, 0, 0, 1.01141e+06, 1.01144e+06, 0.00210268, 0.00608385
275, -25.4349, -13.696, -64.4076, 62.8699, 214.532, -136.403, -34.1469, 155.02, -1843.9, 0, 0, 0.00120473, 0.0001817, -0.00306673, 0.0209106, 0.0762667, 0.0807621, 0, 0, 1.01141e+06, 1.01143e+06, 0.00237938, 0.00647514
276, -25.4349, -13.6874, -64.5276, 62.9902, 235.693, -149.705, -33.8475, 167.821, -1853.63, 0, 0, 0.00120473, 0.0001817, -0.000882003, 0.022469, 0.0822707, 0.08667, 0, 0, 1.0114e+06, 1.01143e+06, 0.00289878, 0.00711382
277, -25.4349, -13.6788, -64.6475, 63.1104, 258.869, -162.752, -33.7829, 182.145, -1865.56, 0, 0, 0.00120473, 0.0001817, 0.00135205, 0.0240182, 0.0883262, 0.0924828, 0, 0, 1.01138e+06, 1.01143e+06, 0.00348632, 0.00781334
278, -25.4349, -13.6703, -64.7674, 63.2306, 279.415, -171.253, -31.1258, 203.349, -1879.76, 0, 0, 0.00120473, 0.0001817, 0.00181938, 0.022893, 0.0900637, 0.0939644, 0, 0, 1.01137e+06, 1.01142e+06, 0.00406926, 0.00843346
279, -25.4349, -13.6617, -64.8874, 63.3509, 299.601, -179.939, -28.4393, 224.402, -1894.28, 0, 0, 0.00120473, 0.0001817, 0.00232209, 0.0217106, 0.0915093, 0.0951732, 0, 0, 1.01136e+06, 1.01141e+06, 0.00463665, 0.00904272
280, -25.4349, -13.6531, -65.0073, 63.4711, 315.464, -190.024, -25.2925, 243.888, -1913.05, 0, 0, 0.00120473, 0.0001817, 0.00325692, 0.0197596, 0.0887812, 0.0924424, 0, 0, 1.01134e+06, 1.0114e+06, 0.00504171, 0.00952151
281, -25.4349, -13.6446, -65.1272, 63.5913, 339.164, -191.019, -22.5175, 269.304, -1933.65, 0, 0, 0.00120473, 0.0001817, 0.00367083, 0.0180737, 0.0835378, 0.086614, 0, 0, 1.01132e+06, 1.01139e+06, 0.00591129, 0.0102369
